12618 8081 10804
10580 7230 11129
14018 8797 10130
9803 8901 10951
14443 9026 9801
10826 11261 10123
13597 9543 10405
14505 9031 9328
13082 10459 10228
13181 10675 9993
13702 10722 9287
13778 10474 9535
12850 9523 10592
12087 8474 10874
12146 11882 9467
11296 11768 9703
10839 11957 9224
9263 7467 11135
12549 10738 10205
11937 7929 10930
11356 8795 10924
11567 10316 10558
13022 11048 9821
12319 9916 10662
11082 11960 8872
14250 9733 9766
11905 10630 10453
12930 11428 9334
